model_name='GCN_64_3'
gnn='GCN'
neurons='64'
layers='3'
state_dict.keys()=odict_keys(['layers.0.lin.weight', 'layers.1.lin.weight', 'layers.2.lin.weight', 'fc11.weight', 'fc11.bias', 'fc12.weight', 'fc12.bias'])
Set parameter Username
Academic license - for non-commercial use only - expires 2023-06-18
Set parameter TimeLimit to value 10800
Set parameter NonConvex to value 2
Warning: constraint name "min constr" has a space
Warning: Q constraint 0 doesn't have a name
Gurobi Optimizer version 9.5.1 build v9.5.1rc2 (linux64)
Thread count: 8 physical cores, 8 logical processors, using up to 8 threads
Optimize a model with 3313 rows, 7049 columns and 11995 nonzeros
Model fingerprint: 0x6b9609dc
Model has 1280 quadratic constraints
Variable types: 3009 continuous, 4040 integer (3968 binary)
Coefficient statistics:
  Matrix range     [8e-05, 2e+03]
  QMatrix range    [1e-04, 6e-01]
  QLMatrix range   [1e+00, 1e+00]
  Objective range  [1e+00, 1e+00]
  Bounds range     [4e-02, 2e+03]
  RHS range        [2e-02, 1e+03]
Presolve removed 233 rows and 2281 columns
Presolve time: 0.66s
Presolved: 39240 rows, 13664 columns, 524005 nonzeros
Presolved model has 8192 bilinear constraint(s)
Variable types: 11639 continuous, 2025 integer (2011 binary)

Deterministic concurrent LP optimizer: primal and dual simplex (primal and dual model)
Showing first log only...

Root relaxation presolve removed 8976 rows and 1296 columns
Root relaxation presolved: 30264 rows, 12368 columns, 513733 nonzeros


Root simplex log...

Iteration    Objective       Primal Inf.    Dual Inf.      Time
   10319    4.2459271e+02   0.000000e+00   1.234677e+05      5s
   15340    4.4682700e+02   0.000000e+00   2.396523e+04     10s
   17612    4.6457312e+02   0.000000e+00   1.082980e+04     15s
   19484    4.6973689e+02   0.000000e+00   6.116437e+03     20s
   21167    4.7318110e+02   0.000000e+00   8.598989e+04     25s
   22914    4.7484368e+02   0.000000e+00   1.982463e+02     30s
   24492    4.7515748e+02   0.000000e+00   1.222103e+03     35s
   25844    4.7528039e+02   0.000000e+00   4.071541e+02     40s
Concurrent spin time: 5.52s

Solved with dual simplex (primal model)

Root relaxation: objective 4.754080e+02, 20258 iterations, 47.58 seconds (50.47 work units)
Total elapsed time = 207.92s
Total elapsed time = 216.54s
Total elapsed time = 223.54s

    Nodes    |    Current Node    |     Objective Bounds      |     Work
 Expl Unexpl |  Obj  Depth IntInf | Incumbent    BestBd   Gap | It/Node Time

     0     0  475.40802    0 5069          -  475.40802      -     -  226s
H    0     0                       4.4389480  475.40802      -     -  227s
     0     0  378.63312    0 8041    4.43895  378.63312  8430%     - 1185s
     0     0  372.54597    0 7961    4.43895  372.54597  8293%     - 1329s
     0     0  372.54597    0 8465    4.43895  372.54597  8293%     - 1474s
     0     0  372.54597    0 8488    4.43895  372.54597  8293%     - 1606s
     0     0  372.54597    0 8608    4.43895  372.54597  8293%     - 1769s
     0     0  372.54597    0 8678    4.43895  372.54597  8293%     - 2061s
     0     0  372.54597    0 8700    4.43895  372.54597  8293%     - 2218s
     0     0  372.54597    0 8753    4.43895  372.54597  8293%     - 2273s
     0     0  372.54597    0 8913    4.43895  372.54597  8293%     - 2322s
     0     0  372.54597    0 8848    4.43895  372.54597  8293%     - 2366s
     0     0  372.54597    0 8758    4.43895  372.54597  8293%     - 2413s
     0     0  372.54597    0 8879    4.43895  372.54597  8293%     - 2544s
     0     0  372.54597    0 8868    4.43895  372.54597  8293%     - 2630s
     0     0  372.54597    0 8831    4.43895  372.54597  8293%     - 2691s
     0     0  372.54597    0 8795    4.43895  372.54597  8293%     - 2740s
     0     0  372.54597    0 8865    4.43895  372.54597  8293%     - 2839s
     0     0  372.54597    0 8761    4.43895  372.54597  8293%     - 2927s
     0     0  372.54597    0 8736    4.43895  372.54597  8293%     - 2976s
     0     0  372.54597    0 8828    4.43895  372.54597  8293%     - 3063s
     0     0  372.54597    0 8672    4.43895  372.54597  8293%     - 3165s
     0     0  372.54597    0 8781    4.43895  372.54597  8293%     - 3266s
     0     0  372.54597    0 8786    4.43895  372.54597  8293%     - 3310s
     0     0  372.54597    0 8900    4.43895  372.54597  8293%     - 3390s
     0     0  372.54597    0 8247    4.43895  372.54597  8293%     - 3478s
     0     0  372.54597    0 8752    4.43895  372.54597  8293%     - 3548s
     0     0  372.54597    0 8589    4.43895  372.54597  8293%     - 3608s
     0     2  372.54597    0 8588    4.43895  372.54597  8293%     - 3888s
     1     4  229.61787    1 7761    4.43895  372.54597  8293% 117622 4267s
     3     8  148.66824    2 6802    4.43895  372.54597  8293% 70864 5414s
     7    16   68.81060    3 6798    4.43895  372.09906  8283% 88457 6790s
    15    24   43.53478    4 6748    4.43895  369.96278  8234% 103079 7305s
    23    32   35.20520    4 7153    4.43895  369.96262  8234% 86399 7450s
    31    40   32.27220    5 6761    4.43895  369.07359  8214% 69822 7564s
    39    48   27.59017    5 6700    4.43895  369.07357  8214% 60352 7652s
    47    57   11.08775    6 6794    4.43895  368.62333  8204% 53022 8064s
    56    65   22.46387    6 7011    4.43895  368.62333  8204% 50186 8781s
H   64    76                       4.4389499  368.62333  8204% 49904 8921s
    75    89   20.25688    8 7403    4.43895  368.62333  8204% 45424 9029s
    88   102   18.98372    9 7757    4.43895  368.62333  8204% 41001 9162s
   101   118   17.53177   10 7308    4.43895  368.62333  8204% 37554 9290s
H  114   118                       4.4389554  368.62333  8204% 34669 9290s
   117   135   16.04820   11 7400    4.43896  368.62333  8204% 33940 9429s
   134   153   14.53072   12 7374    4.43896  368.62333  8204% 31404 9549s
   152   171   12.89254   13 7301    4.43896  368.62333  8204% 29297 9639s
H  154   171                       4.4389556  368.62333  8204% 28977 9639s
   170   198   11.19477   14 7590    4.43896  368.62333  8204% 27353 9733s
   197   223    9.89905   15 7077    4.43896  368.62333  8204% 24819 9825s
   222   253    9.69903   15 6789    4.43896  368.62333  8204% 22788 9907s
   252   291    8.97119   16 6868    4.43896  368.62333  8204% 20855 10006s
   290   336    8.19903   17 6724    4.43896  368.62333  8204% 18788 10077s
   335   381    7.41946   18 6922    4.43896  368.62333  8204% 16816 10157s
   380   434    6.96174   19 6983    4.43896  368.62333  8204% 15236 10222s
   433   495    6.16498   20 7071    4.43896  368.62333  8204% 13658 10292s
   494   557    5.36396   21 7290    4.43896  368.62333  8204% 12227 10458s
   562   620    4.56016   22 7210    4.43896  368.62333  8204% 11219 10542s
   627   706    4.54932   23 6810    4.43896  368.62333  8204% 10471 10630s
   713   802    4.50280   23 6932    4.43896  368.62333  8204%  9465 10683s
   809   926     cutoff   24         4.43896  368.62333  8204%  8560 10730s
   941  1047     cutoff   24         4.43896  368.62333  8204%  7624 10800s

Cutting planes:
  Gomory: 40
  Cover: 130
  Implied bound: 1801
  Clique: 503
  MIR: 1540
  StrongCG: 12
  Flow cover: 679
  GUB cover: 50
  Zero half: 15
  RLT: 520
  Relax-and-lift: 401
  BQP: 179

Explored 1068 nodes (8228578 simplex iterations) in 10800.41 seconds (18056.24 work units)
Thread count was 8 (of 8 available processors)

Solution count 1: 4.43896 

Time limit reached
Warning: max constraint violation (3.4337e-06) exceeds tolerance
Best objective 4.438955638176e+00, best bound 3.686233303221e+02, gap 8204.2806%
